\* WBM Problem *\
Maximize
Total_weights_of_selected_edges: 210 e_1_1 + 278 e_1_2 + 359 e_1_3 + 153 e_1_4
 + 243 e_2_1 + 329 e_2_2 + 146 e_2_3 + 282 e_2_4 + 197 e_3_1 + 407 e_3_2
 + 318 e_3_3 + 78 e_3_4 + 162 e_4_1 + 216 e_4_2 + 279 e_4_3 + 343 e_4_4
Subject To
_C1: e_1_1 + e_1_2 + e_1_3 + e_1_4 <= 1
_C10: e_1_1 + e_2_1 + e_3_1 + e_4_1 <= 1
_C11: e_2_1 + e_2_2 + e_2_3 + e_2_4 <= 1
_C12: e_1_2 + e_2_2 + e_3_2 + e_4_2 <= 1
_C13: e_2_1 + e_2_2 + e_2_3 + e_2_4 <= 1
_C14: e_1_3 + e_2_3 + e_3_3 + e_4_3 <= 1
_C15: e_2_1 + e_2_2 + e_2_3 + e_2_4 <= 1
_C16: e_1_4 + e_2_4 + e_3_4 + e_4_4 <= 1
_C17: e_3_1 + e_3_2 + e_3_3 + e_3_4 <= 1
_C18: e_1_1 + e_2_1 + e_3_1 + e_4_1 <= 1
_C19: e_3_1 + e_3_2 + e_3_3 + e_3_4 <= 1
_C2: e_1_1 + e_2_1 + e_3_1 + e_4_1 <= 1
_C20: e_1_2 + e_2_2 + e_3_2 + e_4_2 <= 1
_C21: e_3_1 + e_3_2 + e_3_3 + e_3_4 <= 1
_C22: e_1_3 + e_2_3 + e_3_3 + e_4_3 <= 1
_C23: e_3_1 + e_3_2 + e_3_3 + e_3_4 <= 1
_C24: e_1_4 + e_2_4 + e_3_4 + e_4_4 <= 1
_C25: e_4_1 + e_4_2 + e_4_3 + e_4_4 <= 1
_C26: e_1_1 + e_2_1 + e_3_1 + e_4_1 <= 1
_C27: e_4_1 + e_4_2 + e_4_3 + e_4_4 <= 1
_C28: e_1_2 + e_2_2 + e_3_2 + e_4_2 <= 1
_C29: e_4_1 + e_4_2 + e_4_3 + e_4_4 <= 1
_C3: e_1_1 + e_1_2 + e_1_3 + e_1_4 <= 1
_C30: e_1_3 + e_2_3 + e_3_3 + e_4_3 <= 1
_C31: e_4_1 + e_4_2 + e_4_3 + e_4_4 <= 1
_C32: e_1_4 + e_2_4 + e_3_4 + e_4_4 <= 1
_C4: e_1_2 + e_2_2 + e_3_2 + e_4_2 <= 1
_C5: e_1_1 + e_1_2 + e_1_3 + e_1_4 <= 1
_C6: e_1_3 + e_2_3 + e_3_3 + e_4_3 <= 1
_C7: e_1_1 + e_1_2 + e_1_3 + e_1_4 <= 1
_C8: e_1_4 + e_2_4 + e_3_4 + e_4_4 <= 1
_C9: e_2_1 + e_2_2 + e_2_3 + e_2_4 <= 1
Binaries
e_1_1
e_1_2
e_1_3
e_1_4
e_2_1
e_2_2
e_2_3
e_2_4
e_3_1
e_3_2
e_3_3
e_3_4
e_4_1
e_4_2
e_4_3
e_4_4
End
